;; sequence(s): A157516
;; terms: 4801 19601 44401 79201 124001 178801 243601 318401 403201 498001 602801 717601 842401 977201 1122001 1276801 1441601 1616401 1801201 1996001
;; small program: 1 + (2 * loop((2 + x) * x, 1, 2 * loop((2 * (2 + (x + x))) + x, 2, x)))
;; fast program: (loop((x - 2) * x, 1, (1 + x) * (2 * loop(x * x, 1, 1 + (2 + 2)))) * 2) + 1
(set-logic UFNIA)
(declare-fun f0 (Int) Int)
(declare-fun g0 () Int)
(declare-fun f1 (Int) Int)
(declare-fun g1 () Int)
(declare-fun h1 (Int) Int)
(declare-fun u1 (Int Int) Int)
(declare-fun v1 (Int) Int)
(declare-fun h0 (Int) Int)
(declare-fun u0 (Int Int) Int)
(declare-fun v0 (Int) Int)
(declare-fun small (Int) Int)
(declare-fun f2 (Int) Int)
(declare-fun g2 () Int)
(declare-fun f3 (Int) Int)
(declare-fun g3 () Int)
(declare-fun h3 () Int)
(declare-fun u3 (Int Int) Int)
(declare-fun v3 () Int)
(declare-fun h2 (Int) Int)
(declare-fun u2 (Int Int) Int)
(declare-fun v2 (Int) Int)
(declare-fun fast (Int) Int)
(assert (forall ((x Int)) (= (f0 x) (* (+ 2 x) x))))
(assert (= g0 1))
(assert (forall ((x Int)) (= (f1 x) (+ (* 2 (+ 2 (+ x x))) x))))
(assert (= g1 2))
(assert (forall ((x Int)) (= (h1 x) x)))
(assert (forall ((x Int) (y Int)) (= (u1 x y) (ite (<= x 0) y (f1 (u1 (- x 1) y))))))
(assert (forall ((x Int)) (= (v1 x) (u1 g1 (h1 x)))))
(assert (forall ((x Int)) (= (h0 x) (* 2 (v1 x)))))
(assert (forall ((x Int) (y Int)) (= (u0 x y) (ite (<= x 0) y (f0 (u0 (- x 1) y))))))
(assert (forall ((x Int)) (= (v0 x) (u0 g0 (h0 x)))))
(assert (forall ((x Int)) (= (small x) (+ 1 (* 2 (v0 x))))))
(assert (forall ((x Int)) (= (f2 x) (* (- x 2) x))))
(assert (= g2 1))
(assert (forall ((x Int)) (= (f3 x) (* x x))))
(assert (= g3 1))
(assert (= h3 (+ 1 (+ 2 2))))
(assert (forall ((x Int) (y Int)) (= (u3 x y) (ite (<= x 0) y (f3 (u3 (- x 1) y))))))
(assert (= v3 (u3 g3 h3)))
(assert (forall ((x Int)) (= (h2 x) (* (+ 1 x) (* 2 v3)))))
(assert (forall ((x Int) (y Int)) (= (u2 x y) (ite (<= x 0) y (f2 (u2 (- x 1) y))))))
(assert (forall ((x Int)) (= (v2 x) (u2 g2 (h2 x)))))
(assert (forall ((x Int)) (= (fast x) (+ (* (v2 x) 2) 1))))
(assert (exists ((c Int)) (and (>= c 0) (not (= (small c) (fast c))))))
(check-sat)
